(set-info :source |printed by MathSAT|)

0 (4) @37:
(assert true)

4 (13) @52:
(assert true)

13 (17,16,15,14) @52:
(assert true)

17 () @407:
(assert true)

16 () @408:
(assert true)

15 () @52:
(assert true)

14 () @409:
(assert true)

